71434976239010870275011,9,1,2,05,3,1,2,04,8,1,2,08,9,1,2,02,3,1,2,02,9,1,2,014,4,1,2,07,2,1,2,03,4,1,2,06,9,1,2,05,10,1,2,04,15,1,2,04,2,1,2,010,13,1,2,09,13,1,2,02,11,1,2,02,6,1,2,08,8,1,2,012,3,1,2,08,1,1,2,07,7,1,2,013,3,1,2,04,9,1,2,012,8,1,2,08,2,1,2,02,1,1,2,02,13,1,2,013,14,1,2,015,14,1,2,014,2,1,2,07,2,1,2,012,15,1,2,06,3,1,2,02,9,1,2,01,7,1,2,015,1,1,2,05,5,1,2,010,6,1,2,08,6,1,2,08,3,1,2,010,5,1,2,014,13,1,2,09,4,1,2,08,10,1,2,09,15,1,2,05,2,1,2,04,8,1,2,014,4,1,2,04,8,1,2,04,12,1,2,0